(set-info :smt-lib-version 2.6)
(set-info :category "crafted")
(set-logic QF_FF)
(define-sort FF0 () (_ FiniteField 52435875175126190479447740508185965837690552500527637822603658699938581184513))
(declare-fun k_n3_alt () FF0)
(declare-fun l_n12_alt () FF0)
(declare-fun mul_n15_alt () FF0)
(declare-fun f_n2_alt () FF0)
(declare-fun j_n5_alt () FF0)
(declare-fun c_n8_alt () FF0)
(declare-fun g_n11_alt () FF0)
(declare-fun mul_n14_alt () FF0)
(declare-fun e_n4_alt () FF0)
(declare-fun mul_n13_alt () FF0)
(declare-fun b_n0_alt () FF0)
(declare-fun return_n9_alt () FF0)
(declare-fun is_zero_inv_n16_alt () FF0)
(declare-fun d_n6_alt () FF0)
(declare-fun a_n1_alt () FF0)
(declare-fun i_n7_alt () FF0)
(declare-fun h_n10_alt () FF0)
(declare-fun k_n3 () FF0)
(declare-fun l_n12 () FF0)
(declare-fun mul_n15 () FF0)
(declare-fun f_n2 () FF0)
(declare-fun j_n5 () FF0)
(declare-fun c_n8 () FF0)
(declare-fun g_n11 () FF0)
(declare-fun mul_n14 () FF0)
(declare-fun e_n4 () FF0)
(declare-fun mul_n13 () FF0)
(declare-fun b_n0 () FF0)
(declare-fun return_n9 () FF0)
(declare-fun is_zero_inv_n16 () FF0)
(declare-fun d_n6 () FF0)
(declare-fun a_n1 () FF0)
(declare-fun i_n7 () FF0)
(declare-fun h_n10 () FF0)
(assert 
  (let ((let0 (as ff0 FF0)))
  (let ((let1 (as ff6 FF0)))
  (let ((let2 (as ff52435875175126190479447740508185965837690552500527637822603658699938581184512 FF0)))
  (let ((let3 k_n3_alt))
  (let ((let4 (ff.mul let3 let2)))
  (let ((let5 l_n12_alt))
  (let ((let6 (ff.mul let5 let2)))
  (let ((let7 mul_n15_alt))
  (let ((let8 (ff.mul let7 let2)))
  (let ((let9 f_n2_alt))
  (let ((let10 (ff.mul let9 let2)))
  (let ((let11 j_n5_alt))
  (let ((let12 (ff.mul let11 let2)))
  (let ((let13 c_n8_alt))
  (let ((let14 (ff.mul let13 let2)))
  (let ((let15 g_n11_alt))
  (let ((let16 (ff.mul let15 let2)))
  (let ((let17 mul_n14_alt))
  (let ((let18 (ff.mul let17 let2)))
  (let ((let19 e_n4_alt))
  (let ((let20 mul_n13_alt))
  (let ((let21 b_n0_alt))
  (let ((let22 (ff.add let21 let20 let19 let18 let16 let14 let12 let10 let8 let6 let4 let1)))
  (let ((let23 return_n9_alt))
  (let ((let24 (ff.mul let23 let22)))
  (let ((let25 (= let24 let0)))
  (let ((let26 (as ff1 FF0)))
  (let ((let27 (ff.mul let23 let2)))
  (let ((let28 (ff.add let27 let26)))
  (let ((let29 is_zero_inv_n16_alt))
  (let ((let30 (ff.mul let29 let22)))
  (let ((let31 (= let30 let28)))
  (let ((let32 (as ff2 FF0)))
  (let ((let33 (ff.mul let21 let32)))
  (let ((let34 (ff.mul let33 let19)))
  (let ((let35 (= let34 let7)))
  (let ((let36 d_n6_alt))
  (let ((let37 (ff.add let36 let4)))
  (let ((let38 a_n1_alt))
  (let ((let39 (ff.mul let38 let37)))
  (let ((let40 (= let39 let17)))
  (let ((let41 i_n7_alt))
  (let ((let42 (ff.mul let41 let2)))
  (let ((let43 (ff.add let42 let26)))
  (let ((let44 h_n10_alt))
  (let ((let45 (ff.mul let44 let43)))
  (let ((let46 (= let45 let20)))
  (let ((let47 (and let46 let40 let35 let31 let25)))
  (let ((let48 k_n3))
  (let ((let49 (ff.mul let48 let2)))
  (let ((let50 l_n12))
  (let ((let51 (ff.mul let50 let2)))
  (let ((let52 mul_n15))
  (let ((let53 (ff.mul let52 let2)))
  (let ((let54 f_n2))
  (let ((let55 (ff.mul let54 let2)))
  (let ((let56 j_n5))
  (let ((let57 (ff.mul let56 let2)))
  (let ((let58 c_n8))
  (let ((let59 (ff.mul let58 let2)))
  (let ((let60 g_n11))
  (let ((let61 (ff.mul let60 let2)))
  (let ((let62 mul_n14))
  (let ((let63 (ff.mul let62 let2)))
  (let ((let64 e_n4))
  (let ((let65 mul_n13))
  (let ((let66 b_n0))
  (let ((let67 (ff.add let66 let65 let64 let63 let61 let59 let57 let55 let53 let51 let49 let1)))
  (let ((let68 return_n9))
  (let ((let69 (ff.mul let68 let67)))
  (let ((let70 (= let69 let0)))
  (let ((let71 (ff.mul let68 let2)))
  (let ((let72 (ff.add let71 let26)))
  (let ((let73 is_zero_inv_n16))
  (let ((let74 (ff.mul let73 let67)))
  (let ((let75 (= let74 let72)))
  (let ((let76 (ff.mul let66 let32)))
  (let ((let77 (ff.mul let76 let64)))
  (let ((let78 (= let77 let52)))
  (let ((let79 d_n6))
  (let ((let80 (ff.add let79 let49)))
  (let ((let81 a_n1))
  (let ((let82 (ff.mul let81 let80)))
  (let ((let83 (= let82 let62)))
  (let ((let84 i_n7))
  (let ((let85 (ff.mul let84 let2)))
  (let ((let86 (ff.add let85 let26)))
  (let ((let87 h_n10))
  (let ((let88 (ff.mul let87 let86)))
  (let ((let89 (= let88 let65)))
  (let ((let90 (and let89 let83 let78 let75 let70)))
  (let ((let91 (= let68 let23)))
  (let ((let92 (not let91)))
  (let ((let93 (= let58 let13)))
  (let ((let94 (= let60 let15)))
  (let ((let95 (= let87 let44)))
  (let ((let96 (= let66 let21)))
  (let ((let97 (= let84 let41)))
  (let ((let98 (= let56 let11)))
  (let ((let99 (= let50 let5)))
  (let ((let100 (= let54 let9)))
  (let ((let101 (= let81 let38)))
  (let ((let102 (= let64 let19)))
  (let ((let103 (= let48 let3)))
  (let ((let104 (= let79 let36)))
  (let ((let105 (and let104 let103 let102 let101 let100 let99 let98 let97 let96 let95 let94 let93)))
  (let ((let106 (and let105 let92 let90 let47)))
  let106
)))))))))))))))))))))))))))))))))))))))))))))))))))))))))))))))))))))))))))))))))))))))))))))))))))))))))))
)
(check-sat)
